set tyres := 1 2 3;
set laps := 1 2 3 4 5 6 7 8 9 10 11 12 13 14 15 16 17 18 19 20 21 22 23 24 25 26 27 28 29 30 31;
set stints := 1 2 3 4 5 6 7 8 9 10 11 12 13 14 15 16 17 18 19;
param usage:
        1       2       3       4       5       6       7       8       9       10      11      12      13      14      15      16      17      18      19=
    1   0       0.05    0.10    0.15    0.20    0.25    0.30    0.35    0.40    0.45    0.50    0.55    0.60    0.65    0.70    0.75    0.80    0.85    0.90
    2   0       0.04    0.08    0.12    0.16    0.2     0.24    0.28    0.32    0.36    0.4     0.44    0.48    0.52    0.56    0.6     0.64    0.68    0.72
    3   0       0.03    0.06    0.09    0.12    0.15    0.18    0.21    0.24    0.27    0.30    0.33    0.36    0.39    0.42    0.45    0.48    0.51    0.54;

param fuelconsumption := 1.18


param:      coeffx  coeffy  avg:=
        1   23.35   0.88    8.35
        2   32.16   1.02    22.4
        3   28.45   0.67    55.8;